p edge 213 691
e 1 6
e 1 16
e 1 18
e 1 21
e 1 28
e 1 34
e 1 38
e 1 45
e 1 52
e 1 67
e 1 80
e 1 88
e 1 97
e 1 105
e 1 139
e 1 143
e 1 159
e 1 172
e 1 178
e 1 182
e 2 6
e 2 10
e 2 22
e 2 25
e 2 27
e 2 29
e 2 34
e 2 36
e 2 40
e 2 68
e 2 89
e 2 104
e 2 130
e 2 163
e 3 7
e 3 11
e 3 20
e 3 21
e 3 31
e 3 52
e 3 60
e 3 98
e 3 145
e 4 16
e 4 17
e 4 25
e 4 45
e 4 51
e 4 91
e 4 106
e 4 116
e 4 125
e 4 138
e 4 193
e 5 6
e 5 12
e 5 15
e 5 24
e 5 27
e 5 29
e 5 32
e 5 61
e 5 87
e 5 89
e 5 114
e 5 116
e 5 127
e 5 187
e 6 7
e 6 12
e 6 16
e 6 17
e 6 24
e 6 27
e 6 45
e 6 53
e 6 61
e 6 87
e 6 89
e 6 104
e 6 118
e 6 120
e 7 17
e 7 22
e 7 31
e 7 43
e 7 59
e 7 60
e 7 78
e 7 98
e 7 108
e 7 117
e 7 126
e 7 128
e 7 190
e 8 9
e 8 12
e 8 14
e 8 25
e 8 28
e 8 29
e 8 51
e 8 91
e 8 99
e 8 110
e 8 116
e 8 171
e 8 204
e 9 24
e 9 28
e 9 57
e 9 82
e 9 110
e 9 116
e 9 203
e 9 204
e 10 15
e 10 71
e 10 109
e 10 130
e 10 163
e 10 167
e 11 21
e 11 30
e 11 31
e 11 52
e 11 98
e 11 145
e 11 174
e 12 14
e 12 19
e 12 24
e 12 25
e 12 27
e 12 36
e 12 41
e 12 53
e 12 54
e 12 61
e 12 70
e 12 79
e 12 87
e 12 89
e 12 99
e 12 110
e 12 118
e 12 133
e 12 183
e 12 187
e 13 31
e 13 32
e 13 48
e 13 49
e 13 60
e 13 80
e 13 84
e 13 122
e 13 192
e 14 19
e 14 41
e 14 56
e 14 79
e 14 97
e 14 99
e 14 127
e 14 134
e 14 171
e 15 17
e 15 70
e 15 72
e 15 127
e 15 167
e 16 45
e 16 77
e 16 124
e 16 135
e 16 160
e 16 161
e 16 166
e 16 195
e 17 33
e 17 51
e 17 91
e 17 191
e 17 193
e 18 21
e 18 24
e 18 26
e 18 27
e 18 34
e 18 35
e 18 36
e 18 38
e 18 40
e 18 89
e 18 177
e 19 53
e 19 95
e 19 118
e 19 123
e 19 133
e 19 183
e 19 210
e 20 41
e 20 52
e 20 57
e 20 74
e 20 94
e 20 129
e 20 145
e 20 168
e 20 175
e 21 34
e 21 47
e 21 63
e 21 83
e 21 140
e 21 145
e 22 29
e 22 32
e 22 36
e 22 38
e 22 39
e 22 48
e 22 51
e 22 61
e 22 98
e 23 34
e 23 75
e 23 77
e 23 81
e 23 86
e 23 126
e 24 26
e 24 27
e 24 29
e 24 36
e 24 57
e 24 61
e 24 87
e 24 89
e 24 156
e 24 165
e 24 204
e 25 35
e 25 53
e 25 62
e 25 67
e 25 82
e 25 110
e 25 114
e 25 116
e 26 27
e 26 35
e 26 36
e 26 38
e 26 39
e 26 40
e 26 54
e 26 156
e 26 165
e 26 177
e 26 187
e 26 211
e 26 212
e 27 40
e 27 61
e 27 69
e 27 75
e 27 87
e 27 89
e 27 123
e 27 140
e 27 156
e 27 165
e 28 72
e 28 116
e 28 118
e 28 169
e 28 178
e 29 93
e 30 31
e 30 46
e 30 55
e 30 93
e 30 129
e 30 147
e 31 32
e 31 37
e 31 46
e 31 48
e 31 60
e 31 80
e 31 98
e 31 193
e 32 38
e 32 39
e 32 51
e 32 54
e 32 63
e 32 87
e 33 47
e 33 49
e 33 69
e 33 107
e 33 121
e 33 169
e 33 191
e 34 40
e 34 50
e 34 62
e 34 67
e 34 81
e 34 132
e 35 39
e 35 53
e 35 62
e 35 67
e 35 156
e 35 187
e 35 189
e 36 51
e 36 54
e 36 61
e 36 70
e 36 77
e 36 139
e 36 146
e 37 46
e 37 48
e 37 49
e 37 63
e 37 107
e 37 129
e 37 147
e 37 177
e 37 189
e 37 193
e 38 40
e 38 51
e 38 63
e 38 69
e 38 80
e 38 83
e 38 157
e 38 177
e 39 47
e 39 51
e 39 61
e 39 63
e 39 65
e 39 98
e 39 187
e 40 65
e 40 70
e 40 89
e 40 109
e 40 177
e 41 74
e 41 79
e 41 99
e 41 115
e 41 175
e 42 64
e 42 73
e 42 81
e 42 102
e 42 131
e 42 153
e 42 158
e 42 208
e 43 59
e 43 106
e 43 108
e 43 126
e 43 136
e 43 154
e 43 155
e 43 190
e 43 202
e 44 66
e 44 96
e 44 120
e 44 134
e 44 148
e 44 199
e 44 207
e 45 53
e 45 58
e 45 62
e 45 66
e 46 48
e 46 52
e 46 55
e 46 90
e 46 145
e 46 193
e 47 61
e 47 72
e 47 140
e 47 165
e 47 169
e 48 91
e 48 193
e 49 93
e 49 107
e 49 121
e 49 129
e 50 92
e 50 111
e 50 160
e 51 61
e 51 91
e 51 98
e 51 193
e 52 88
e 52 105
e 52 139
e 52 143
e 52 145
e 53 58
e 53 62
e 53 67
e 53 82
e 53 114
e 53 118
e 53 133
e 53 183
e 54 58
e 54 70
e 55 90
e 55 100
e 55 129
e 55 143
e 56 97
e 56 113
e 56 134
e 56 158
e 57 129
e 57 145
e 57 204
e 58 62
e 58 71
e 58 86
e 58 123
e 58 137
e 58 211
e 58 212
e 59 101
e 59 108
e 59 126
e 59 190
e 60 62
e 60 81
e 60 84
e 60 85
e 60 98
e 60 180
e 60 192
e 61 87
e 61 89
e 61 98
e 61 105
e 62 67
e 62 81
e 62 132
e 63 83
e 63 147
e 63 157
e 64 73
e 64 104
e 65 70
e 65 89
e 65 109
e 65 132
e 65 203
e 66 73
e 66 96
e 66 120
e 66 127
e 67 80
e 67 83
e 67 84
e 67 132
e 67 182
e 68 148
e 68 172
e 69 80
e 69 83
e 69 94
e 69 102
e 69 121
e 69 139
e 69 140
e 69 146
e 70 72
e 70 88
e 70 89
e 70 109
e 71 109
e 72 85
e 72 169
e 72 176
e 73 119
e 73 199
e 74 173
e 74 175
e 74 205
e 75 86
e 75 108
e 75 123
e 75 133
e 75 186
e 76 119
e 76 135
e 76 148
e 76 184
e 76 195
e 77 135
e 77 139
e 77 146
e 77 195
e 77 206
e 78 109
e 78 117
e 78 128
e 78 133
e 78 179
e 79 96
e 79 99
e 79 114
e 79 171
e 79 188
e 80 83
e 80 182
e 82 114
e 83 84
e 83 101
e 83 108
e 84 85
e 84 111
e 84 180
e 84 185
e 84 192
e 85 176
e 85 180
e 85 181
e 86 123
e 86 137
e 86 167
e 86 211
e 86 212
e 87 89
e 87 100
e 88 94
e 88 100
e 88 105
e 88 139
e 88 143
e 88 198
e 89 109
e 90 93
e 90 100
e 90 103
e 90 143
e 90 198
e 91 193
e 92 111
e 92 124
e 93 198
e 94 100
e 94 102
e 94 139
e 94 146
e 94 153
e 94 208
e 95 103
e 95 141
e 95 142
e 95 146
e 95 182
e 96 119
e 96 120
e 96 194
e 99 144
e 99 163
e 100 103
e 100 143
e 101 108
e 102 139
e 102 141
e 102 146
e 102 153
e 102 208
e 103 141
e 103 143
e 104 115
e 105 139
e 105 142
e 105 143
e 105 149
e 106 186
e 106 196
e 106 200
e 106 201
e 107 129
e 107 189
e 108 126
e 108 133
e 108 186
e 108 190
e 109 133
e 110 203
e 111 185
e 112 120
e 112 166
e 112 197
e 113 117
e 113 131
e 113 158
e 114 116
e 114 171
e 117 128
e 118 133
e 118 183
e 119 184
e 119 194
e 119 199
e 120 166
e 121 149
e 122 149
e 123 137
e 123 211
e 123 212
e 124 159
e 124 185
e 126 128
e 126 190
e 130 134
e 130 163
e 131 170
e 131 175
e 132 137
e 133 183
e 133 186
e 135 148
e 135 195
e 136 200
e 136 201
e 136 202
e 137 167
e 137 211
e 137 212
e 138 150
e 138 152
e 138 181
e 139 143
e 139 146
e 140 165
e 142 149
e 142 209
e 146 182
e 148 172
e 148 207
e 150 152
e 150 181
e 151 174
e 152 176
e 153 159
e 153 208
e 154 155
e 154 196
e 155 196
e 156 165
e 157 202
e 159 185
e 160 161
e 161 162
e 162 164
e 164 178
e 170 175
e 184 194
e 186 196
e 186 200
e 186 201
e 188 197
e 196 200
e 196 201
e 200 201
e 206 213
e 211 212
